# Objective value = 2.9436007292598663e+02
x[0] 1
x[1] 1
x[2] 1
x[3] 0
x[4] 0
x[5] 0
x[6] 0
x[7] 0
x[8] 1
x[9] 0
x[10] 1
x[11] 1
x[12] 1
x[13] 1
x[14] 0
x[15] 0
x[16] 0
x[17] 1
x[18] 0
x[19] 0
x[20] 1
x[21] 0
x[22] 1
x[23] 1
x[24] 1
x[25] 1
x[26] 1
x[27] 0
x[28] 1
x[29] 0
x[30] 0
x[31] 0
x[32] 0
x[33] 0
x[34] 1
x[35] 1
x[36] 0
x[37] 0
x[38] 0
x[39] 0
x[40] 1
x[41] 1
x[42] 1
x[43] 1
x[44] 1
x[45] 1
x[46] 1
x[47] 0
x[48] 0
x[49] 1
x[50] 0
x[51] 0
x[52] 0
x[53] 0
x[54] 1
x[55] 1
x[56] 0
x[57] 1
x[58] 1
x[59] 1
x[60] 1
x[61] 0
x[62] 0
x[63] 0
x[64] 0
x[65] 0
x[66] 1
x[67] 0
x[68] 1
x[69] 1
x[70] 0
x[71] 0
x[72] 0
x[73] 1
x[74] 1
x[75] 1
x[76] 1
x[77] 0
x[78] 1
x[79] 0
x[80] 0
x[81] 1
x[82] 0
x[83] 0
x[84] 0
x[85] 1
x[86] 0
x[87] 0
x[88] 1
x[89] 1
x[90] 0
x[91] 1
x[92] 1
x[93] 0
x[94] 1
x[95] 1
x[96] 0
x[97] 1
x[98] 1
x[99] 1
x[100] 0
x[101] 1
x[102] 0
x[103] 0
x[104] 0
x[105] 1
x[106] 1
x[107] 1
x[108] 0
x[109] 1
x[110] 1
x[111] 0
x[112] 0
x[113] 1
x[114] 0
x[115] 0
x[116] 1
x[117] 0
x[118] 0
x[119] 0
x[120] 0
x[121] 0
x[122] 0
x[123] 0
x[124] 0
x[125] 0
x[126] 0
x[127] 0
x[128] 1
x[129] 1
x[130] 0
x[131] 0
x[132] 1
x[133] 0
x[134] 0
x[135] 1
x[136] 1
x[137] 1
x[138] 0
x[139] 1
x[140] 0
x[141] 1
x[142] 0
x[143] 0
x[144] 0
x[145] 0
x[146] 1
x[147] 1
x[148] 0
x[149] 1
x[150] 0
x[151] 0
x[152] 1
x[153] 1
x[154] 0
x[155] 0
x[156] 1
x[157] 1
x[158] 0
x[159] 0
x[160] 1
x[161] 1
x[162] 0
x[163] 0
x[164] 0
x[165] 1
x[166] 1
x[167] 0
x[168] 1
x[169] 0
x[170] 0
x[171] 0
x[172] 0
x[173] 1
x[174] 0
x[175] 1
x[176] 1
x[177] 0
x[178] 1
x[179] 1
x[180] 1
x[181] 1
x[182] 0
x[183] 1
x[184] 1
x[185] 1
x[186] 1
x[187] 1
x[188] 0
x[189] 1
x[190] 1
x[191] 1
x[192] 1
x[193] 0
x[194] 0
x[195] 1
x[196] 1
x[197] 0
x[198] 0
x[199] 0
x[200] 1
x[201] 0
x[202] 1
x[203] 1
x[204] 1
x[205] 0
x[206] 1
x[207] 1
x[208] 0
x[209] 1
x[210] 1
x[211] 1
x[212] 1
x[213] 1
x[214] 0
x[215] 1
x[216] 1
x[217] 0
x[218] 1
x[219] 0
x[220] 1
x[221] 1
x[222] 1
x[223] 0
x[224] 0
x[225] 0
x[226] 1
x[227] 1
x[228] 1
x[229] 1
x[230] 0
x[231] 1
x[232] 0
x[233] 0
x[234] 0
x[235] 0
x[236] 1
x[237] 0
x[238] 0
x[239] 1
x[240] 0
x[241] 1
x[242] 1
x[243] 0
x[244] 1
x[245] 1
x[246] 0
x[247] 1
x[248] 0
x[249] 0
x[250] 1
x[251] 0
x[252] 1
x[253] 1
x[254] 0
x[255] 0
x[256] 0
x[257] 1
x[258] 0
x[259] 0
x[260] 1
x[261] 1
x[262] 0
x[263] 1
x[264] 0
x[265] 1
x[266] 1
x[267] 0
x[268] 1
x[269] 1
x[270] 1
x[271] 1
x[272] 1
x[273] 1
x[274] 1
x[275] 1
x[276] 0
x[277] 1
x[278] 1
x[279] 1
x[280] 0
x[281] 1
x[282] 0
x[283] 0
x[284] 0
x[285] 0
x[286] 1
x[287] 1
x[288] 1
x[289] 0
x[290] 1
x[291] 0
x[292] 0
x[293] 1
x[294] 0
x[295] 0
x[296] 1
x[297] 0
x[298] 0
x[299] 0
x[300] 1
x[301] 0
x[302] 0
x[303] 0
x[304] 0
x[305] 0
x[306] 1
x[307] 0
x[308] 0
x[309] 0
x[310] 1
x[311] 1
x[312] 0
x[313] 1
x[314] 0
x[315] 1
x[316] 1
x[317] 1
x[318] 1
x[319] 1
x[320] 0
x[321] 1
x[322] 0
x[323] 1
x[324] 1
x[325] 0
x[326] 0
x[327] 1
x[328] 0
x[329] 1
x[330] 1
x[331] 0
x[332] 0
x[333] 0
x[334] 0
x[335] 0
x[336] 0
x[337] 1
x[338] 0
x[339] 1
x[340] 1
x[341] 1
x[342] 0
x[343] 0
x[344] 1
x[345] 0
x[346] 1
x[347] 1
x[348] 0
x[349] 0
x[350] 0
x[351] 1
x[352] 0
x[353] 0
x[354] 1
x[355] 0
x[356] 0
x[357] 0
x[358] 0
x[359] 1
x[360] 0
x[361] 0
x[362] 0
x[363] 0
x[364] 1
x[365] 1
x[366] 1
x[367] 0
x[368] 1
x[369] 0
x[370] 0
x[371] 0
x[372] 0
x[373] 1
x[374] 0
x[375] 1
x[376] 1
x[377] 1
x[378] 0
x[379] 0
x[380] 1
x[381] 0
x[382] 0
x[383] 0
x[384] 1
x[385] 1
x[386] 1
x[387] 1
x[388] 1
x[389] 0
x[390] 1
x[391] 1
x[392] 0
x[393] 0
x[394] 0
x[395] 0
x[396] 0
x[397] 0
x[398] 1
x[399] 1
x[400] 0
x[401] 1
x[402] 0
x[403] 0
x[404] 1
x[405] 1
x[406] 1
x[407] 0
x[408] 1
x[409] 0
x[410] 0
x[411] 0
x[412] 0
x[413] 1
x[414] 0
x[415] 0
x[416] 0
x[417] 1
x[418] 1
x[419] 1
x[420] 1
x[421] 0
x[422] 1
x[423] 0
x[424] 0
x[425] 1
x[426] 1
x[427] 1
x[428] 1
x[429] 1
x[430] 0
x[431] 0
x[432] 1
x[433] 1
x[434] 1
x[435] 1
x[436] 0
x[437] 1
x[438] 1
x[439] 0
x[440] 0
x[441] 0
x[442] 0
x[443] 1
x[444] 1
x[445] 1
x[446] 0
x[447] 1
x[448] 1
x[449] 1
x[450] 0
x[451] 0
x[452] 0
x[453] 1
x[454] 1
x[455] 1
x[456] 0
x[457] 1
x[458] 0
x[459] 1
x[460] 1
x[461] 1
x[462] 0
x[463] 1
x[464] 0
x[465] 1
x[466] 1
x[467] 1
x[468] 1
x[469] 1
x[470] 1
x[471] 1
x[472] 1
x[473] 1
x[474] 0
x[475] 0
x[476] 1
x[477] 1
x[478] 0
x[479] 1
x[480] 0
x[481] 0
x[482] 0
x[483] 1
x[484] 0
x[485] 1
x[486] 1
x[487] 0
x[488] 0
x[489] 0
x[490] 0
x[491] 0
x[492] 1
x[493] 1
x[494] 0
x[495] 1
x[496] 0
x[497] 0
x[498] 0
x[499] 0
x[500] 0
x[501] 1
x[502] 1
x[503] 0
x[504] 1
x[505] 0
x[506] 0
x[507] 0
x[508] 0
x[509] 1
x[510] 0
x[511] 1
x[512] 0
x[513] 0
x[514] 0
x[515] 0
x[516] 1
x[517] 0
x[518] 1
x[519] 1
x[520] 0
x[521] 0
x[522] 0
x[523] 1
x[524] 1
x[525] 0
x[526] 0
x[527] 0
x[528] 1
x[529] 0
x[530] 1
x[531] 0
x[532] 1
x[533] 1
x[534] 1
x[535] 0
x[536] 1
x[537] 1
x[538] 0
x[539] 0
x[540] 0
x[541] 1
x[542] 0
x[543] 0
x[544] 0
x[545] 1
x[546] 0
x[547] 0
x[548] 0
x[549] 1
x[550] 1
x[551] 1
x[552] 0
x[553] 1
x[554] 1
x[555] 0
x[556] 0
x[557] 0
x[558] 0
x[559] 1
x[560] 0
x[561] 1
x[562] 1
x[563] 1
x[564] 1
x[565] 1
x[566] 0
x[567] 0
x[568] 0
x[569] 1
x[570] 1
x[571] 1
x[572] 0
x[573] 1
x[574] 0
x[575] 0
x[576] 0
x[577] 0
x[578] 0
x[579] 1
x[580] 0
x[581] 1
x[582] 1
x[583] 1
x[584] 1
x[585] 0
x[586] 0
x[587] 1
x[588] 1
x[589] 0
x[590] 0
x[591] 1
x[592] 1
x[593] 0
x[594] 0
x[595] 0
x[596] 1
x[597] 0
x[598] 0
x[599] 1.0000001833090351e+00
x[600] 1
x[601] 0
x[602] 1
x[603] 1
x[604] 0
x[605] 0
x[606] 0
x[607] 0
x[608] 0
x[609] 1
x[610] 0
x[611] 0
x[612] 0
x[613] 1
x[614] 1
x[615] 0
x[616] 1
x[617] 0
x[618] 1
x[619] 1
x[620] 1
x[621] 0
x[622] 0
x[623] 0
x[624] 0
x[625] 0
x[626] 0
x[627] 1
x[628] 1
x[629] 0
x[630] 1
x[631] 1
x[632] 0
x[633] 1
x[634] 0
x[635] 1
x[636] 1
x[637] 0
x[638] 1
x[639] 0
x[640] 0
x[641] 1
x[642] 0
x[643] 1
x[644] 0
x[645] 0
x[646] 1
x[647] 0
x[648] 0
x[649] 0
x[650] 1
x[651] 0
x[652] 1
x[653] 0
x[654] 1
x[655] 1
x[656] 0
x[657] 0
x[658] 1
x[659] 0
x[660] 0
x[661] 1
x[662] 1
x[663] 1
x[664] 1
x[665] 1
x[666] 1
x[667] 0
x[668] 0
x[669] 1
x[670] 0
x[671] 1
x[672] 0
x[673] 0
x[674] 1
x[675] 0
x[676] 0
x[677] 0
x[678] 0
x[679] 0
x[680] 0
x[681] 0
x[682] 0
x[683] 0
x[684] 1
x[685] 1
x[686] 1
x[687] 1
x[688] 0
x[689] 0
x[690] 0
x[691] 1
x[692] 1
x[693] 0
x[694] 0
x[695] 1
x[696] 0
x[697] 0
x[698] 1
x[699] 0
x[700] 0
x[701] 0
x[702] 1
x[703] 0
x[704] 0
x[705] 1
x[706] 0
x[707] 0
x[708] 1
x[709] 1
x[710] 1
x[711] 1
x[712] 0
x[713] 0
x[714] 1
x[715] 0
x[716] 0
x[717] 1
x[718] 0
x[719] 1
x[720] 0
x[721] 1
x[722] 1
x[723] 0
x[724] 0
x[725] 0
x[726] 0
x[727] 0
x[728] 1
x[729] 0
x[730] 1
x[731] 0
x[732] 1
x[733] 0
x[734] 0
x[735] 1
x[736] 1
x[737] 1
x[738] 0
x[739] 1
x[740] 1
x[741] 0
x[742] 0
x[743] 0
x[744] 0
x[745] 0
x[746] 0
x[747] 0
x[748] 1
x[749] 0
x[750] 0
x[751] 0
x[752] 1
x[753] 0
x[754] 1
x[755] 1
x[756] 0
x[757] 1
x[758] 0
x[759] 1
x[760] 0
x[761] 0
x[762] 1
x[763] 1
x[764] 1
x[765] 0
x[766] 1
x[767] 0
x[768] 1
x[769] 0
x[770] 0
x[771] 1
x[772] 1
x[773] 0
x[774] 1
x[775] 1
x[776] 1
x[777] 1
x[778] 0
x[779] 0
x[780] 0
x[781] 1
x[782] 0
x[783] 1
x[784] 1
x[785] 0
x[786] 0
x[787] 0
x[788] 0
x[789] 0
x[790] 0
x[791] 0
x[792] 1
x[793] 0
x[794] 1
x[795] 1
x[796] 0
x[797] 1
x[798] 0
x[799] 1
x[800] 1
x[801] 0
x[802] 0
x[803] 0
x[804] 1
x[805] 1
x[806] 1
x[807] 1
x[808] 0
x[809] 0
x[810] 1
x[811] 0
x[812] 1
x[813] 0
x[814] 1
x[815] 0
x[816] 1
x[817] 0
x[818] 0
x[819] 1
x[820] 1
x[821] 1
x[822] 0
x[823] 0
x[824] 1
x[825] 1
x[826] 1
x[827] 0
x[828] 1
x[829] 1
x[830] 0
x[831] 0
x[832] 0
x[833] 0
x[834] 0
x[835] 0
x[836] 1
x[837] 0
x[838] 1
x[839] 1
x[840] 1
x[841] 0
x[842] 1
x[843] 0
x[844] 1
x[845] 0
x[846] 0
x[847] 1
x[848] 0
x[849] 0
x[850] 1
x[851] 0
x[852] 0
x[853] 0
x[854] 1
x[855] 1
x[856] 1
x[857] 0
x[858] 1
x[859] 0
x[860] 1
x[861] 0
x[862] 0
x[863] 0
x[864] 0
x[865] 1
x[866] 0
x[867] 0
x[868] 1
x[869] 0
x[870] 1
x[871] 0
x[872] 0
x[873] 1
x[874] 0
x[875] 1
x[876] 1
x[877] 1
x[878] 0
x[879] 1
x[880] 1
x[881] 0
x[882] 0
x[883] 0
x[884] 0
x[885] 1
x[886] 0
x[887] 0
x[888] 0
x[889] 1
x[890] 0
x[891] 1
x[892] 0
x[893] 0
x[894] 1
x[895] 0
x[896] 0
x[897] 0
x[898] 0
x[899] 1
x[900] 1
x[901] 0
x[902] 1
x[903] 1
x[904] 0
x[905] 1
x[906] 1
x[907] 1
x[908] 0
x[909] 1
x[910] 0
x[911] 1
x[912] 0
x[913] 1
x[914] 1
x[915] 0
x[916] 0
x[917] 0
x[918] 0
x[919] 0
x[920] 1
x[921] 0
x[922] 1
x[923] 1
x[924] 0
x[925] 1
x[926] 1
x[927] 0
x[928] 1
x[929] 0
x[930] 0
x[931] 0
x[932] 1
x[933] 0
x[934] 1
x[935] 0
x[936] 0
x[937] 1
x[938] 1
x[939] 0
x[940] 0
x[941] 1
x[942] 0
x[943] 1
x[944] 0
x[945] 0
x[946] 0
x[947] 0
x[948] 0
x[949] 0
x[950] 1
x[951] 1
x[952] 0
x[953] 0
x[954] 1
x[955] 0
x[956] 1
x[957] 0
x[958] 1
x[959] 1
x[960] 1
x[961] 0
x[962] 0
x[963] 0
x[964] 1
x[965] 0
x[966] 1
x[967] 0
x[968] 0
x[969] 1
x[970] 1
x[971] 1
x[972] 1
x[973] 1
x[974] 1
x[975] 1
x[976] 0
x[977] 0
x[978] 0
x[979] 1
x[980] 0
x[981] 1
x[982] 0
x[983] 0
x[984] 1
x[985] 0
x[986] 1
x[987] 0
x[988] 1
x[989] 1
x[990] 1
x[991] 1
x[992] 1
x[993] 1
x[994] 1
x[995] 1
x[996] 0
x[997] 1
x[998] 1
x[999] 0
